Route #1: 35 38 9 53 11 27 32
Route #2: 18 7 50 39 49 23 4 43
Route #3: 34 14 12 2 13 6 16
Route #4: 30 25 47 41 51 24 42 46 52
Route #5: 20 36 1 45 26 17 29 5 28
Route #6: 15 10 44 3 22 19
Route #7: 37 48 40 8 31 33 21
cost 1331.4981689453125